c Optimal Cost: 16800
p wcnf 80 1270 501
168 1 -42 0
168 -1 42 0
84 1 -43 0
84 -1 43 0
84 1 -44 0
84 -1 44 0
84 1 -50 0
84 -1 50 0
252 1 -52 0
252 -1 52 0
84 1 -58 0
84 -1 58 0
168 1 -59 0
168 -1 59 0
84 1 -60 0
84 -1 60 0
100 1 62 0
100 -1 -62 0
200 1 63 0
200 -1 -63 0
100 1 64 0
100 -1 -64 0
100 1 65 0
100 -1 -65 0
200 1 67 0
200 -1 -67 0
100 1 70 0
100 -1 -70 0
100 1 71 0
100 -1 -71 0
100 1 72 0
100 -1 -72 0
100 1 75 0
100 -1 -75 0
100 1 77 0
100 -1 -77 0
84 2 43 0
84 -2 -43 0
168 2 44 0
168 -2 -44 0
84 2 46 0
84 -2 -46 0
84 2 48 0
84 -2 -48 0
84 2 49 0
84 -2 -49 0
84 2 51 0
84 -2 -51 0
84 2 52 0
84 -2 -52 0
84 2 53 0
84 -2 -53 0
100 2 -62 0
100 -2 62 0
100 2 -63 0
100 -2 63 0
100 2 -65 0
100 -2 65 0
100 2 -69 0
100 -2 69 0
100 2 -77 0
100 -2 77 0
100 2 -78 0
100 -2 78 0
100 2 -79 0
100 -2 79 0
200 2 -80 0
200 -2 80 0
84 3 42 0
84 -3 -42 0
84 3 43 0
84 -3 -43 0
84 3 44 0
84 -3 -44 0
84 3 46 0
84 -3 -46 0
84 3 47 0
84 -3 -47 0
168 3 49 0
168 -3 -49 0
84 3 50 0
84 -3 -50 0
84 3 51 0
84 -3 -51 0
84 3 52 0
84 -3 -52 0
84 3 55 0
84 -3 -55 0
168 3 57 0
168 -3 -57 0
100 3 -61 0
100 -3 61 0
100 3 -62 0
100 -3 62 0
100 3 -63 0
100 -3 63 0
100 3 -65 0
100 -3 65 0
300 3 -66 0
300 -3 66 0
300 3 -68 0
300 -3 68 0
100 3 -74 0
100 -3 74 0
100 3 -75 0
100 -3 75 0
100 3 -76 0
100 -3 76 0
84 4 -41 0
84 -4 41 0
84 4 -42 0
84 -4 42 0
84 4 -43 0
84 -4 43 0
84 4 -45 0
84 -4 45 0
168 4 -47 0
168 -4 47 0
84 4 -51 0
84 -4 51 0
84 4 -52 0
84 -4 52 0
168 4 -57 0
168 -4 57 0
84 4 -60 0
84 -4 60 0
100 4 62 0
100 -4 -62 0
100 4 65 0
100 -4 -65 0
200 4 66 0
200 -4 -66 0
100 4 67 0
100 -4 -67 0
100 4 69 0
100 -4 -69 0
100 4 70 0
100 -4 -70 0
100 4 72 0
100 -4 -72 0
100 4 75 0
100 -4 -75 0
100 4 77 0
100 -4 -77 0
100 4 79 0
100 -4 -79 0
84 5 41 0
84 -5 -41 0
84 5 45 0
84 -5 -45 0
84 5 49 0
84 -5 -49 0
84 5 52 0
84 -5 -52 0
252 5 53 0
252 -5 -53 0
168 5 54 0
168 -5 -54 0
84 5 56 0
84 -5 -56 0
84 5 59 0
84 -5 -59 0
100 5 -61 0
100 -5 61 0
100 5 -64 0
100 -5 64 0
300 5 -69 0
300 -5 69 0
100 5 -72 0
100 -5 72 0
100 5 -74 0
100 -5 74 0
200 5 -75 0
200 -5 75 0
100 5 -77 0
100 -5 77 0
100 5 -79 0
100 -5 79 0
84 6 41 0
84 -6 -41 0
168 6 43 0
168 -6 -43 0
168 6 44 0
168 -6 -44 0
84 6 50 0
84 -6 -50 0
84 6 52 0
84 -6 -52 0
84 6 54 0
84 -6 -54 0
168 6 55 0
168 -6 -55 0
168 6 56 0
168 -6 -56 0
84 6 57 0
84 -6 -57 0
84 6 59 0
84 -6 -59 0
84 6 60 0
84 -6 -60 0
100 6 -62 0
100 -6 62 0
100 6 -63 0
100 -6 63 0
100 6 -64 0
100 -6 64 0
100 6 -67 0
100 -6 67 0
100 6 -69 0
100 -6 69 0
200 6 -70 0
200 -6 70 0
100 6 -71 0
100 -6 71 0
100 6 -72 0
100 -6 72 0
100 6 -74 0
100 -6 74 0
300 6 -77 0
300 -6 77 0
100 6 -78 0
100 -6 78 0
100 6 -80 0
100 -6 80 0
168 7 -42 0
168 -7 42 0
84 7 -45 0
84 -7 45 0
168 7 -47 0
168 -7 47 0
84 7 -52 0
84 -7 52 0
84 7 -60 0
84 -7 60 0
100 7 61 0
100 -7 -61 0
100 7 62 0
100 -7 -62 0
100 7 63 0
100 -7 -63 0
100 7 68 0
100 -7 -68 0
100 7 71 0
100 -7 -71 0
100 7 74 0
100 -7 -74 0
100 7 79 0
100 -7 -79 0
84 8 49 0
84 -8 -49 0
84 8 52 0
84 -8 -52 0
84 8 53 0
84 -8 -53 0
168 8 54 0
168 -8 -54 0
84 8 55 0
84 -8 -55 0
168 8 56 0
168 -8 -56 0
84 8 57 0
84 -8 -57 0
84 8 60 0
84 -8 -60 0
100 8 -62 0
100 -8 62 0
100 8 -67 0
100 -8 67 0
200 8 -70 0
200 -8 70 0
100 8 -73 0
100 -8 73 0
100 8 -75 0
100 -8 75 0
300 8 -79 0
300 -8 79 0
100 8 -80 0
100 -8 80 0
84 9 -42 0
84 -9 42 0
84 9 -44 0
84 -9 44 0
168 9 -46 0
168 -9 46 0
168 9 -50 0
168 -9 50 0
84 9 -53 0
84 -9 53 0
84 9 -54 0
84 -9 54 0
84 9 -56 0
84 -9 56 0
84 9 -59 0
84 -9 59 0
100 9 62 0
100 -9 -62 0
100 9 63 0
100 -9 -63 0
100 9 64 0
100 -9 -64 0
100 9 65 0
100 -9 -65 0
100 9 66 0
100 -9 -66 0
100 9 68 0
100 -9 -68 0
100 9 71 0
100 -9 -71 0
100 9 72 0
100 -9 -72 0
100 9 76 0
100 -9 -76 0
100 9 77 0
100 -9 -77 0
84 10 -46 0
84 -10 46 0
84 10 -47 0
84 -10 47 0
84 10 -48 0
84 -10 48 0
84 10 -53 0
84 -10 53 0
84 10 -56 0
84 -10 56 0
168 10 -59 0
168 -10 59 0
100 10 61 0
100 -10 -61 0
100 10 62 0
100 -10 -62 0
100 10 68 0
100 -10 -68 0
100 10 70 0
100 -10 -70 0
200 10 74 0
200 -10 -74 0
100 10 77 0
100 -10 -77 0
84 11 -41 0
84 -11 41 0
84 11 -42 0
84 -11 42 0
84 11 -46 0
84 -11 46 0
84 11 -51 0
84 -11 51 0
84 11 -54 0
84 -11 54 0
84 11 -56 0
84 -11 56 0
168 11 -58 0
168 -11 58 0
84 11 -60 0
84 -11 60 0
100 11 61 0
100 -11 -61 0
100 11 62 0
100 -11 -62 0
100 11 63 0
100 -11 -63 0
100 11 67 0
100 -11 -67 0
100 11 68 0
100 -11 -68 0
100 11 73 0
100 -11 -73 0
100 11 75 0
100 -11 -75 0
100 11 77 0
100 -11 -77 0
100 11 78 0
100 -11 -78 0
168 12 -44 0
168 -12 44 0
84 12 -46 0
84 -12 46 0
84 12 -48 0
84 -12 48 0
84 12 -49 0
84 -12 49 0
84 12 -50 0
84 -12 50 0
168 12 -57 0
168 -12 57 0
84 12 -58 0
84 -12 58 0
84 12 -59 0
84 -12 59 0
84 12 -60 0
84 -12 60 0
100 12 64 0
100 -12 -64 0
100 12 65 0
100 -12 -65 0
100 12 70 0
100 -12 -70 0
100 12 71 0
100 -12 -71 0
200 12 73 0
200 -12 -73 0
100 12 76 0
100 -12 -76 0
100 12 77 0
100 -12 -77 0
300 12 79 0
300 -12 -79 0
84 13 41 0
84 -13 -41 0
84 13 44 0
84 -13 -44 0
168 13 53 0
168 -13 -53 0
168 13 54 0
168 -13 -54 0
84 13 56 0
84 -13 -56 0
100 13 -65 0
100 -13 65 0
100 13 -67 0
100 -13 67 0
100 13 -70 0
100 -13 70 0
100 13 -71 0
100 -13 71 0
100 13 -75 0
100 -13 75 0
100 13 -76 0
100 -13 76 0
100 13 -77 0
100 -13 77 0
252 14 -42 0
252 -14 42 0
84 14 -43 0
84 -14 43 0
84 14 -44 0
84 -14 44 0
84 14 -46 0
84 -14 46 0
84 14 -48 0
84 -14 48 0
168 14 -54 0
168 -14 54 0
84 14 -55 0
84 -14 55 0
84 14 -56 0
84 -14 56 0
200 14 63 0
200 -14 -63 0
100 14 65 0
100 -14 -65 0
100 14 66 0
100 -14 -66 0
100 14 72 0
100 -14 -72 0
100 14 74 0
100 -14 -74 0
100 14 76 0
100 -14 -76 0
100 14 78 0
100 -14 -78 0
100 14 79 0
100 -14 -79 0
200 14 80 0
200 -14 -80 0
84 15 41 0
84 -15 -41 0
168 15 44 0
168 -15 -44 0
84 15 47 0
84 -15 -47 0
84 15 48 0
84 -15 -48 0
84 15 49 0
84 -15 -49 0
84 15 50 0
84 -15 -50 0
84 15 53 0
84 -15 -53 0
168 15 54 0
168 -15 -54 0
84 15 55 0
84 -15 -55 0
84 15 57 0
84 -15 -57 0
168 15 58 0
168 -15 -58 0
168 15 59 0
168 -15 -59 0
100 15 -63 0
100 -15 63 0
100 15 -64 0
100 -15 64 0
100 15 -67 0
100 -15 67 0
100 15 -71 0
100 -15 71 0
200 15 -72 0
200 -15 72 0
300 15 -73 0
300 -15 73 0
200 15 -74 0
200 -15 74 0
100 15 -75 0
100 -15 75 0
100 15 -76 0
100 -15 76 0
200 15 -78 0
200 -15 78 0
100 15 -79 0
100 -15 79 0
84 16 -42 0
84 -16 42 0
84 16 -48 0
84 -16 48 0
252 16 -49 0
252 -16 49 0
84 16 -50 0
84 -16 50 0
84 16 -55 0
84 -16 55 0
100 16 61 0
100 -16 -61 0
100 16 62 0
100 -16 -62 0
100 16 68 0
100 -16 -68 0
200 16 69 0
200 -16 -69 0
100 16 71 0
100 -16 -71 0
100 16 77 0
100 -16 -77 0
84 17 42 0
84 -17 -42 0
84 17 44 0
84 -17 -44 0
84 17 48 0
84 -17 -48 0
84 17 50 0
84 -17 -50 0
168 17 51 0
168 -17 -51 0
84 17 53 0
84 -17 -53 0
84 17 54 0
84 -17 -54 0
84 17 60 0
84 -17 -60 0
100 17 -62 0
100 -17 62 0
100 17 -68 0
100 -17 68 0
100 17 -69 0
100 -17 69 0
200 17 -70 0
200 -17 70 0
100 17 -71 0
100 -17 71 0
100 17 -74 0
100 -17 74 0
200 17 -78 0
200 -17 78 0
84 18 41 0
84 -18 -41 0
84 18 44 0
84 -18 -44 0
168 18 45 0
168 -18 -45 0
84 18 49 0
84 -18 -49 0
84 18 50 0
84 -18 -50 0
168 18 51 0
168 -18 -51 0
84 18 53 0
84 -18 -53 0
84 18 55 0
84 -18 -55 0
84 18 56 0
84 -18 -56 0
84 18 57 0
84 -18 -57 0
100 18 -61 0
100 -18 61 0
100 18 -63 0
100 -18 63 0
100 18 -64 0
100 -18 64 0
100 18 -67 0
100 -18 67 0
200 18 -70 0
200 -18 70 0
100 18 -71 0
100 -18 71 0
100 18 -72 0
100 -18 72 0
100 18 -74 0
100 -18 74 0
100 18 -76 0
100 -18 76 0
100 18 -77 0
100 -18 77 0
100 18 -78 0
100 -18 78 0
84 19 43 0
84 -19 -43 0
84 19 47 0
84 -19 -47 0
84 19 53 0
84 -19 -53 0
84 19 54 0
84 -19 -54 0
84 19 57 0
84 -19 -57 0
84 19 58 0
84 -19 -58 0
100 19 -70 0
100 -19 70 0
100 19 -71 0
100 -19 71 0
100 19 -72 0
100 -19 72 0
100 19 -73 0
100 -19 73 0
100 19 -78 0
100 -19 78 0
100 19 -79 0
100 -19 79 0
84 20 -42 0
84 -20 42 0
84 20 -45 0
84 -20 45 0
84 20 -47 0
84 -20 47 0
84 20 -51 0
84 -20 51 0
168 20 -53 0
168 -20 53 0
84 20 -57 0
84 -20 57 0
100 20 63 0
100 -20 -63 0
100 20 68 0
100 -20 -68 0
100 20 70 0
100 -20 -70 0
200 20 71 0
200 -20 -71 0
100 20 72 0
100 -20 -72 0
100 20 74 0
100 -20 -74 0
200 21 -42 0
200 -21 42 0
100 21 -43 0
100 -21 43 0
100 21 -47 0
100 -21 47 0
200 21 -54 0
200 -21 54 0
100 21 -59 0
100 -21 59 0
100 21 -62 0
100 -21 62 0
100 21 -63 0
100 -21 63 0
100 21 -64 0
100 -21 64 0
100 21 -66 0
100 -21 66 0
200 21 -73 0
200 -21 73 0
100 21 -79 0
100 -21 79 0
100 22 -44 0
100 -22 44 0
200 22 -49 0
200 -22 49 0
100 22 -56 0
100 -22 56 0
100 22 -58 0
100 -22 58 0
100 22 -60 0
100 -22 60 0
100 22 -61 0
100 -22 61 0
100 22 -70 0
100 -22 70 0
100 22 -71 0
100 -22 71 0
100 22 -76 0
100 -22 76 0
100 22 -77 0
100 -22 77 0
100 22 -79 0
100 -22 79 0
300 23 42 0
300 -23 -42 0
100 23 45 0
100 -23 -45 0
100 23 46 0
100 -23 -46 0
100 23 49 0
100 -23 -49 0
100 23 51 0
100 -23 -51 0
300 23 54 0
300 -23 -54 0
100 23 56 0
100 -23 -56 0
100 23 57 0
100 -23 -57 0
100 23 58 0
100 -23 -58 0
100 23 61 0
100 -23 -61 0
200 23 62 0
200 -23 -62 0
200 23 63 0
200 -23 -63 0
100 23 64 0
100 -23 -64 0
200 23 67 0
200 -23 -67 0
100 23 68 0
100 -23 -68 0
100 23 71 0
100 -23 -71 0
100 23 72 0
100 -23 -72 0
100 23 77 0
100 -23 -77 0
100 23 78 0
100 -23 -78 0
100 24 41 0
100 -24 -41 0
200 24 43 0
200 -24 -43 0
100 24 44 0
100 -24 -44 0
100 24 46 0
100 -24 -46 0
100 24 47 0
100 -24 -47 0
300 24 49 0
300 -24 -49 0
200 24 51 0
200 -24 -51 0
100 24 52 0
100 -24 -52 0
100 24 53 0
100 -24 -53 0
200 24 54 0
200 -24 -54 0
100 24 56 0
100 -24 -56 0
200 24 57 0
200 -24 -57 0
100 24 62 0
100 -24 -62 0
200 24 63 0
200 -24 -63 0
200 24 67 0
200 -24 -67 0
300 24 69 0
300 -24 -69 0
300 24 70 0
300 -24 -70 0
100 24 72 0
100 -24 -72 0
100 24 73 0
100 -24 -73 0
200 24 76 0
200 -24 -76 0
100 24 78 0
100 -24 -78 0
200 24 80 0
200 -24 -80 0
100 25 41 0
100 -25 -41 0
100 25 44 0
100 -25 -44 0
100 25 47 0
100 -25 -47 0
200 25 51 0
200 -25 -51 0
100 25 53 0
100 -25 -53 0
100 25 56 0
100 -25 -56 0
100 25 58 0
100 -25 -58 0
100 25 60 0
100 -25 -60 0
100 25 62 0
100 -25 -62 0
100 25 63 0
100 -25 -63 0
100 25 65 0
100 -25 -65 0
100 25 66 0
100 -25 -66 0
100 25 69 0
100 -25 -69 0
100 25 70 0
100 -25 -70 0
100 25 74 0
100 -25 -74 0
100 25 79 0
100 -25 -79 0
100 25 80 0
100 -25 -80 0
100 26 43 0
100 -26 -43 0
100 26 49 0
100 -26 -49 0
100 26 52 0
100 -26 -52 0
200 26 53 0
200 -26 -53 0
100 26 57 0
100 -26 -57 0
100 26 59 0
100 -26 -59 0
200 26 60 0
200 -26 -60 0
100 26 69 0
100 -26 -69 0
200 26 71 0
200 -26 -71 0
100 26 72 0
100 -26 -72 0
100 26 73 0
100 -26 -73 0
200 26 74 0
200 -26 -74 0
100 26 75 0
100 -26 -75 0
100 26 77 0
100 -26 -77 0
100 27 -42 0
100 -27 42 0
100 27 -44 0
100 -27 44 0
100 27 -45 0
100 -27 45 0
100 27 -46 0
100 -27 46 0
200 27 -48 0
200 -27 48 0
100 27 -52 0
100 -27 52 0
100 27 -54 0
100 -27 54 0
200 27 -55 0
200 -27 55 0
100 27 -57 0
100 -27 57 0
100 27 -59 0
100 -27 59 0
100 27 -63 0
100 -27 63 0
200 27 -65 0
200 -27 65 0
100 27 -66 0
100 -27 66 0
200 27 -68 0
200 -27 68 0
200 27 -69 0
200 -27 69 0
100 27 -70 0
100 -27 70 0
100 27 -71 0
100 -27 71 0
100 27 -72 0
100 -27 72 0
100 27 -74 0
100 -27 74 0
100 28 -41 0
100 -28 41 0
100 28 -44 0
100 -28 44 0
100 28 -48 0
100 -28 48 0
100 28 -52 0
100 -28 52 0
100 28 -53 0
100 -28 53 0
200 28 -54 0
200 -28 54 0
100 28 -59 0
100 -28 59 0
100 28 -67 0
100 -28 67 0
100 28 -68 0
100 -28 68 0
100 28 -70 0
100 -28 70 0
100 28 -72 0
100 -28 72 0
100 28 -75 0
100 -28 75 0
100 28 -77 0
100 -28 77 0
200 28 -78 0
200 -28 78 0
300 29 42 0
300 -29 -42 0
100 29 43 0
100 -29 -43 0
200 29 46 0
200 -29 -46 0
200 29 51 0
200 -29 -51 0
100 29 52 0
100 -29 -52 0
100 29 54 0
100 -29 -54 0
100 29 57 0
100 -29 -57 0
100 29 58 0
100 -29 -58 0
100 29 60 0
100 -29 -60 0
100 29 61 0
100 -29 -61 0
100 29 62 0
100 -29 -62 0
200 29 63 0
200 -29 -63 0
200 29 64 0
200 -29 -64 0
100 29 66 0
100 -29 -66 0
100 29 67 0
100 -29 -67 0
100 29 72 0
100 -29 -72 0
100 29 75 0
100 -29 -75 0
300 29 79 0
300 -29 -79 0
100 30 -44 0
100 -30 44 0
100 30 -46 0
100 -30 46 0
100 30 -47 0
100 -30 47 0
100 30 -52 0
100 -30 52 0
200 30 -53 0
200 -30 53 0
100 30 -55 0
100 -30 55 0
100 30 -65 0
100 -30 65 0
100 30 -70 0
100 -30 70 0
200 30 -71 0
200 -30 71 0
100 30 -75 0
100 -30 75 0
200 30 -77 0
200 -30 77 0
200 31 -41 0
200 -31 41 0
100 31 -44 0
100 -31 44 0
200 31 -45 0
200 -31 45 0
100 31 -47 0
100 -31 47 0
100 31 -48 0
100 -31 48 0
200 31 -50 0
200 -31 50 0
400 31 -53 0
400 -31 53 0
200 31 -56 0
200 -31 56 0
100 31 -57 0
100 -31 57 0
100 31 -59 0
100 -31 59 0
100 31 -62 0
100 -31 62 0
100 31 -64 0
100 -31 64 0
100 31 -67 0
100 -31 67 0
100 31 -68 0
100 -31 68 0
100 31 -69 0
100 -31 69 0
100 31 -70 0
100 -31 70 0
100 31 -72 0
100 -31 72 0
100 31 -73 0
100 -31 73 0
100 31 -74 0
100 -31 74 0
100 31 -75 0
100 -31 75 0
100 31 -76 0
100 -31 76 0
200 31 -77 0
200 -31 77 0
200 31 -78 0
200 -31 78 0
100 31 -79 0
100 -31 79 0
100 31 -80 0
100 -31 80 0
100 32 -43 0
100 -32 43 0
100 32 -45 0
100 -32 45 0
100 32 -49 0
100 -32 49 0
200 32 -50 0
200 -32 50 0
200 32 -57 0
200 -32 57 0
100 32 -58 0
100 -32 58 0
100 32 -63 0
100 -32 63 0
100 32 -67 0
100 -32 67 0
100 32 -70 0
100 -32 70 0
100 32 -71 0
100 -32 71 0
200 32 -78 0
200 -32 78 0
200 32 -79 0
200 -32 79 0
100 33 47 0
100 -33 -47 0
100 33 49 0
100 -33 -49 0
100 33 57 0
100 -33 -57 0
100 33 66 0
100 -33 -66 0
100 33 68 0
100 -33 -68 0
100 33 79 0
100 -33 -79 0
100 34 -41 0
100 -34 41 0
500 34 -44 0
500 -34 44 0
100 34 -46 0
100 -34 46 0
200 34 -49 0
200 -34 49 0
100 34 -50 0
100 -34 50 0
100 34 -53 0
100 -34 53 0
100 34 -54 0
100 -34 54 0
200 34 -55 0
200 -34 55 0
100 34 -56 0
100 -34 56 0
100 34 -61 0
100 -34 61 0
100 34 -63 0
100 -34 63 0
100 34 -64 0
100 -34 64 0
200 34 -68 0
200 -34 68 0
100 34 -69 0
100 -34 69 0
200 34 -70 0
200 -34 70 0
100 34 -71 0
100 -34 71 0
200 34 -73 0
200 -34 73 0
200 34 -75 0
200 -34 75 0
100 34 -77 0
100 -34 77 0
100 34 -80 0
100 -34 80 0
100 35 47 0
100 -35 -47 0
100 35 50 0
100 -35 -50 0
100 35 51 0
100 -35 -51 0
100 35 54 0
100 -35 -54 0
100 35 55 0
100 -35 -55 0
100 35 59 0
100 -35 -59 0
100 35 60 0
100 -35 -60 0
200 35 65 0
200 -35 -65 0
300 35 72 0
300 -35 -72 0
100 35 74 0
100 -35 -74 0
100 35 78 0
100 -35 -78 0
100 36 44 0
100 -36 -44 0
100 36 45 0
100 -36 -45 0
100 36 48 0
100 -36 -48 0
100 36 51 0
100 -36 -51 0
100 36 53 0
100 -36 -53 0
100 36 54 0
100 -36 -54 0
100 36 55 0
100 -36 -55 0
100 36 56 0
100 -36 -56 0
100 36 57 0
100 -36 -57 0
100 36 59 0
100 -36 -59 0
100 36 60 0
100 -36 -60 0
100 36 61 0
100 -36 -61 0
200 36 62 0
200 -36 -62 0
100 36 63 0
100 -36 -63 0
100 36 65 0
100 -36 -65 0
200 36 71 0
200 -36 -71 0
100 36 74 0
100 -36 -74 0
100 36 75 0
100 -36 -75 0
100 36 77 0
100 -36 -77 0
100 36 79 0
100 -36 -79 0
100 37 42 0
100 -37 -42 0
100 37 43 0
100 -37 -43 0
100 37 46 0
100 -37 -46 0
100 37 47 0
100 -37 -47 0
200 37 52 0
200 -37 -52 0
100 37 54 0
100 -37 -54 0
200 37 61 0
200 -37 -61 0
100 37 62 0
100 -37 -62 0
100 37 64 0
100 -37 -64 0
100 37 71 0
100 -37 -71 0
100 37 72 0
100 -37 -72 0
100 37 78 0
100 -37 -78 0
200 38 42 0
200 -38 -42 0
100 38 47 0
100 -38 -47 0
200 38 50 0
200 -38 -50 0
100 38 52 0
100 -38 -52 0
100 38 56 0
100 -38 -56 0
100 38 57 0
100 -38 -57 0
100 38 58 0
100 -38 -58 0
200 38 59 0
200 -38 -59 0
100 38 65 0
100 -38 -65 0
100 38 67 0
100 -38 -67 0
100 38 68 0
100 -38 -68 0
100 38 70 0
100 -38 -70 0
200 38 74 0
200 -38 -74 0
100 38 76 0
100 -38 -76 0
100 38 77 0
100 -38 -77 0
200 38 79 0
200 -38 -79 0
100 38 80 0
100 -38 -80 0
100 39 -41 0
100 -39 41 0
200 39 -42 0
200 -39 42 0
200 39 -44 0
200 -39 44 0
100 39 -48 0
100 -39 48 0
100 39 -50 0
100 -39 50 0
100 39 -53 0
100 -39 53 0
100 39 -63 0
100 -39 63 0
100 39 -66 0
100 -39 66 0
200 39 -70 0
200 -39 70 0
100 39 -73 0
100 -39 73 0
100 39 -74 0
100 -39 74 0
100 39 -75 0
100 -39 75 0
100 39 -76 0
100 -39 76 0
100 40 -43 0
100 -40 43 0
100 40 -48 0
100 -40 48 0
100 40 -50 0
100 -40 50 0
100 40 -52 0
100 -40 52 0
100 40 -53 0
100 -40 53 0
100 40 -55 0
100 -40 55 0
200 40 -56 0
200 -40 56 0
100 40 -58 0
100 -40 58 0
100 40 -59 0
100 -40 59 0
100 40 -60 0
100 -40 60 0
200 40 -62 0
200 -40 62 0
100 40 -66 0
100 -40 66 0
100 40 -68 0
100 -40 68 0
100 40 -71 0
100 -40 71 0
200 40 -74 0
200 -40 74 0
100 40 -76 0
100 -40 76 0
300 40 -77 0
300 -40 77 0
